results/x-long/X-n157-k13.vrp_seed-35.out
16876	1594
