results/x-long/X-n157-k13.vrp_seed-35.vrp.sol
Route #1: 151 113 82 11 77 45 83 90 51 100 91 129
Route #2: 88 57 2 119 81 89 112 136 76 153 5 47
Route #3: 126 1 117 9 108 40 80 146 78 125 139 70
Route #4: 101 27 44 124 130 104 127 145 46 19 116 37
Route #5: 49 14 120 26 128 142 62 97 87 65 16 75
Route #6: 17 67 4 35 6 115 55 95 105 152 56 61
Route #7: 59 96 102 111 132 86 94 66 28 7 137 92
Route #8: 143 32 42 3 106 73 135 21 121 54 110 41
Route #9: 34 138 25 155 22 30 74 79 84 33 48 72
Route #10: 38 122 69 99 93 103 36 68 20 118 147 15
Route #11: 12 60 109 114 29 58 39 10 134 52 107 18
Route #12: 131 133 50 154 98 123 53 144 85 140 31 23
Route #13: 71 149 8 150 156 24 43 141 64 63 13 148
Cost 16876.000000